c generated by sgen
p cnf 105 220
-2 -3 -4 0
-1 -3 -4 0
-1 -2 -4 0
-1 -2 -3 0
-6 -7 -8 0
-5 -7 -8 0
-5 -6 -8 0
-5 -6 -7 0
-10 -11 -12 0
-9 -11 -12 0
-9 -10 -12 0
-9 -10 -11 0
-14 -15 -16 0
-13 -15 -16 0
-13 -14 -16 0
-13 -14 -15 0
-18 -19 -20 0
-17 -19 -20 0
-17 -18 -20 0
-17 -18 -19 0
-22 -23 -24 0
-21 -23 -24 0
-21 -22 -24 0
-21 -22 -23 0
-26 -27 -28 0
-25 -27 -28 0
-25 -26 -28 0
-25 -26 -27 0
-30 -31 -32 0
-29 -31 -32 0
-29 -30 -32 0
-29 -30 -31 0
-34 -35 -36 0
-33 -35 -36 0
-33 -34 -36 0
-33 -34 -35 0
-38 -39 -40 0
-37 -39 -40 0
-37 -38 -40 0
-37 -38 -39 0
-42 -43 -44 0
-41 -43 -44 0
-41 -42 -44 0
-41 -42 -43 0
-46 -47 -48 0
-45 -47 -48 0
-45 -46 -48 0
-45 -46 -47 0
-50 -51 -52 0
-49 -51 -52 0
-49 -50 -52 0
-49 -50 -51 0
-54 -55 -56 0
-53 -55 -56 0
-53 -54 -56 0
-53 -54 -55 0
-58 -59 -60 0
-57 -59 -60 0
-57 -58 -60 0
-57 -58 -59 0
-62 -63 -64 0
-61 -63 -64 0
-61 -62 -64 0
-61 -62 -63 0
-66 -67 -68 0
-65 -67 -68 0
-65 -66 -68 0
-65 -66 -67 0
-70 -71 -72 0
-69 -71 -72 0
-69 -70 -72 0
-69 -70 -71 0
-74 -75 -76 0
-73 -75 -76 0
-73 -74 -76 0
-73 -74 -75 0
-78 -79 -80 0
-77 -79 -80 0
-77 -78 -80 0
-77 -78 -79 0
-82 -83 -84 0
-81 -83 -84 0
-81 -82 -84 0
-81 -82 -83 0
-86 -87 -88 0
-85 -87 -88 0
-85 -86 -88 0
-85 -86 -87 0
-90 -91 -92 0
-89 -91 -92 0
-89 -90 -92 0
-89 -90 -91 0
-94 -95 -96 0
-93 -95 -96 0
-93 -94 -96 0
-93 -94 -95 0
-98 -99 -100 0
-97 -99 -100 0
-97 -98 -100 0
-97 -98 -99 0
-101 -102 -103 0
-101 -102 -104 0
-101 -102 -105 0
-101 -103 -104 0
-101 -103 -105 0
-101 -104 -105 0
-102 -103 -104 0
-102 -103 -105 0
-102 -104 -105 0
-103 -104 -105 0
72 65 36 0
25 65 36 0
25 72 36 0
25 72 65 0
52 4 53 0
19 4 53 0
19 52 53 0
19 52 4 0
30 11 42 0
35 11 42 0
35 30 42 0
35 30 11 0
1 38 33 0
15 38 33 0
15 1 33 0
15 1 38 0
12 48 26 0
40 48 26 0
40 12 26 0
40 12 48 0
92 80 96 0
28 80 96 0
28 92 96 0
28 92 80 0
103 8 69 0
57 8 69 0
57 103 69 0
57 103 8 0
71 76 23 0
17 76 23 0
17 71 23 0
17 71 76 0
44 105 88 0
49 105 88 0
49 44 88 0
49 44 105 0
70 54 86 0
81 54 86 0
81 70 86 0
81 70 54 0
97 14 83 0
78 14 83 0
78 97 83 0
78 97 14 0
21 32 2 0
77 32 2 0
77 21 2 0
77 21 32 0
51 27 64 0
58 27 64 0
58 51 64 0
58 51 27 0
10 104 13 0
66 104 13 0
66 10 13 0
66 10 104 0
46 18 60 0
87 18 60 0
87 46 60 0
87 46 18 0
9 98 75 0
91 98 75 0
91 9 75 0
91 9 98 0
39 89 102 0
31 89 102 0
31 39 102 0
31 39 89 0
63 82 85 0
34 82 85 0
34 63 85 0
34 63 82 0
41 61 67 0
47 61 67 0
47 41 67 0
47 41 61 0
73 55 59 0
79 55 59 0
79 73 59 0
79 73 55 0
22 43 84 0
90 43 84 0
90 22 84 0
90 22 43 0
3 68 5 0
100 68 5 0
100 3 5 0
100 3 68 0
20 7 93 0
29 7 93 0
29 20 93 0
29 20 7 0
56 45 94 0
99 45 94 0
99 56 94 0
99 56 45 0
50 6 74 0
16 6 74 0
16 50 74 0
16 50 6 0
62 95 24 0
62 95 101 0
62 95 37 0
62 24 101 0
62 24 37 0
62 101 37 0
95 24 101 0
95 24 37 0
95 101 37 0
24 101 37 0
